32	0

0	2	2	3
10	2	5	6
2	1	4
7	2	5	6
1	1	7
1	1	7
2	2	8	9
4	1	10
10	1	11
1	1	11
2	1	12
6	2	13	14
4	2	15	16
4	2	15	16
7	1	17
3	1	17
1	1	18
2	2	19	20
5	1	22
1	1	21
2	2	22	23
9	2	24	25
3	2	24	25
8	2	26	27
8	2	26	27
3	2	28	30
1	2	28	29
6	1	31
3	1	30
9	1	31
6	1	32
0	0
